784 1512
1 2 2
1 29 1
2 3 4
2 30 4
3 4 3
3 31 4
4 5 1
4 32 4
5 6 2
5 33 3
6 7 5
6 34 1
7 8 2
7 35 1
8 9 3
8 36 5
9 10 3
9 37 2
10 11 1
10 38 2
11 12 5
11 39 1
12 13 5
12 40 5
13 14 2
13 41 2
14 15 5
14 42 4
15 16 2
15 43 2
16 17 3
16 44 5
17 18 5
17 45 4
18 19 2
18 46 3
19 20 4
19 47 3
20 21 5
20 48 3
21 22 2
21 49 1
22 23 5
22 50 5
23 24 2
23 51 1
24 25 1
24 52 4
25 26 1
25 53 3
26 27 3
26 54 5
27 28 5
27 55 3
28 56 1
29 30 1
29 57 2
30 31 5
30 58 4
31 32 5
31 59 2
32 33 3
32 60 2
33 34 4
33 61 5
34 35 1
34 62 1
35 36 4
35 63 2
36 37 4
36 64 4
37 38 4
37 65 5
38 39 5
38 66 5
39 40 4
39 67 1
40 41 1
40 68 5
41 42 2
41 69 1
42 43 1
42 70 1
43 44 2
43 71 4
44 45 4
44 72 5
45 46 5
45 73 3
46 47 2
46 74 3
47 48 5
47 75 4
48 49 1
48 76 1
49 50 5
49 77 2
50 51 4
50 78 2
51 52 1
51 79 5
52 53 2
52 80 5
53 54 3
53 81 2
54 55 5
54 82 4
55 56 2
55 83 5
56 84 2
57 58 1
57 85 2
58 59 3
58 86 3
59 60 5
59 87 5
60 61 5
60 88 2
61 62 3
61 89 1
62 63 2
62 90 3
63 64 2
63 91 2
64 65 4
64 92 3
65 66 1
65 93 4
66 67 1
66 94 2
67 68 4
67 95 2
68 69 5
68 96 5
69 70 4
69 97 3
70 71 2
70 98 5
71 72 4
71 99 4
72 73 1
72 100 2
73 74 3
73 101 3
74 75 4
74 102 1
75 76 3
75 103 3
76 77 5
76 104 2
77 78 3
77 105 3
78 79 2
78 106 5
79 80 3
79 107 1
80 81 1
80 108 4
81 82 5
81 109 1
82 83 2
82 110 2
83 84 1
83 111 1
84 112 1
85 86 2
85 113 3
86 87 2
86 114 4
87 88 3
87 115 5
88 89 1
88 116 3
89 90 3
89 117 3
90 91 1
90 118 4
91 92 3
91 119 4
92 93 1
92 120 4
93 94 2
93 121 1
94 95 5
94 122 2
95 96 3
95 123 4
96 97 1
96 124 4
97 98 3
97 125 5
98 99 1
98 126 1
99 100 3
99 127 2
100 101 3
100 128 4
101 102 2
101 129 4
102 103 5
102 130 5
103 104 1
103 131 4
104 105 2
104 132 3
105 106 1
105 133 3
106 107 1
106 134 5
107 108 5
107 135 3
108 109 4
108 136 2
109 110 1
109 137 3
110 111 1
110 138 2
111 112 2
111 139 2
112 140 5
113 114 4
113 141 3
114 115 3
114 142 5
115 116 4
115 143 1
116 117 5
116 144 1
117 118 1
117 145 5
118 119 4
118 146 1
119 120 1
119 147 3
120 121 3
120 148 4
121 122 5
121 149 4
122 123 2
122 150 3
123 124 5
123 151 5
124 125 3
124 152 1
125 126 1
125 153 3
126 127 3
126 154 2
127 128 2
127 155 4
128 129 1
128 156 5
129 130 3
129 157 3
130 131 2
130 158 4
131 132 1
131 159 5
132 133 1
132 160 2
133 134 4
133 161 1
134 135 3
134 162 5
135 136 2
135 163 2
136 137 4
136 164 2
137 138 2
137 165 4
138 139 1
138 166 5
139 140 2
139 167 4
140 168 4
141 142 1
141 169 1
142 143 2
142 170 2
143 144 1
143 171 4
144 145 5
144 172 2
145 146 1
145 173 3
146 147 3
146 174 1
147 148 1
147 175 3
148 149 2
148 176 2
149 150 5
149 177 1
150 151 3
150 178 4
151 152 4
151 179 2
152 153 3
152 180 1
153 154 2
153 181 5
154 155 4
154 182 1
155 156 3
155 183 1
156 157 5
156 184 2
157 158 5
157 185 2
158 159 5
158 186 5
159 160 2
159 187 5
160 161 2
160 188 4
161 162 5
161 189 1
162 163 3
162 190 3
163 164 1
163 191 4
164 165 4
164 192 4
165 166 5
165 193 1
166 167 4
166 194 5
167 168 2
167 195 2
168 196 2
169 170 4
169 197 2
170 171 3
170 198 3
171 172 4
171 199 3
172 173 5
172 200 4
173 174 5
173 201 2
174 175 4
174 202 4
175 176 4
175 203 5
176 177 1
176 204 2
177 178 1
177 205 3
178 179 1
178 206 5
179 180 4
179 207 1
180 181 2
180 208 1
181 182 3
181 209 1
182 183 3
182 210 2
183 184 4
183 211 4
184 185 1
184 212 5
185 186 3
185 213 5
186 187 5
186 214 1
187 188 2
187 215 5
188 189 2
188 216 3
189 190 4
189 217 5
190 191 5
190 218 1
191 192 1
191 219 4
192 193 5
192 220 4
193 194 1
193 221 5
194 195 3
194 222 2
195 196 1
195 223 2
196 224 5
197 198 2
197 225 1
198 199 5
198 226 1
199 200 4
199 227 3
200 201 3
200 228 2
201 202 5
201 229 2
202 203 2
202 230 1
203 204 5
203 231 4
204 205 5
204 232 3
205 206 1
205 233 4
206 207 2
206 234 1
207 208 3
207 235 4
208 209 2
208 236 4
209 210 1
209 237 5
210 211 3
210 238 2
211 212 5
211 239 1
212 213 3
212 240 4
213 214 1
213 241 2
214 215 1
214 242 3
215 216 4
215 243 5
216 217 5
216 244 2
217 218 3
217 245 1
218 219 1
218 246 4
219 220 2
219 247 5
220 221 1
220 248 5
221 222 5
221 249 5
222 223 3
222 250 1
223 224 5
223 251 2
224 252 5
225 226 2
225 253 5
226 227 5
226 254 5
227 228 4
227 255 5
228 229 4
228 256 2
229 230 5
229 257 4
230 231 5
230 258 5
231 232 4
231 259 4
232 233 3
232 260 1
233 234 4
233 261 5
234 235 1
234 262 3
235 236 4
235 263 5
236 237 5
236 264 1
237 238 2
237 265 3
238 239 1
238 266 4
239 240 3
239 267 5
240 241 5
240 268 2
241 242 4
241 269 4
242 243 4
242 270 5
243 244 4
243 271 2
244 245 1
244 272 5
245 246 2
245 273 3
246 247 3
246 274 5
247 248 4
247 275 2
248 249 3
248 276 2
249 250 3
249 277 1
250 251 5
250 278 3
251 252 2
251 279 3
252 280 5
253 254 5
253 281 4
254 255 4
254 282 5
255 256 4
255 283 5
256 257 4
256 284 5
257 258 1
257 285 3
258 259 3
258 286 2
259 260 4
259 287 4
260 261 4
260 288 3
261 262 4
261 289 5
262 263 2
262 290 4
263 264 1
263 291 4
264 265 5
264 292 3
265 266 5
265 293 1
266 267 1
266 294 5
267 268 5
267 295 5
268 269 3
268 296 3
269 270 4
269 297 1
270 271 2
270 298 3
271 272 1
271 299 4
272 273 5
272 300 1
273 274 2
273 301 2
274 275 1
274 302 2
275 276 2
275 303 1
276 277 1
276 304 1
277 278 5
277 305 1
278 279 4
278 306 4
279 280 1
279 307 2
280 308 1
281 282 3
281 309 1
282 283 1
282 310 3
283 284 5
283 311 1
284 285 4
284 312 2
285 286 2
285 313 4
286 287 1
286 314 5
287 288 5
287 315 1
288 289 3
288 316 5
289 290 3
289 317 1
290 291 1
290 318 3
291 292 1
291 319 2
292 293 3
292 320 3
293 294 5
293 321 5
294 295 2
294 322 1
295 296 2
295 323 1
296 297 4
296 324 3
297 298 4
297 325 3
298 299 5
298 326 5
299 300 5
299 327 5
300 301 3
300 328 4
301 302 2
301 329 2
302 303 4
302 330 5
303 304 3
303 331 5
304 305 2
304 332 4
305 306 2
305 333 1
306 307 3
306 334 1
307 308 4
307 335 1
308 336 1
309 310 1
309 337 3
310 311 2
310 338 4
311 312 2
311 339 3
312 313 5
312 340 4
313 314 4
313 341 5
314 315 5
314 342 4
315 316 4
315 343 3
316 317 5
316 344 4
317 318 1
317 345 3
318 319 2
318 346 3
319 320 2
319 347 5
320 321 1
320 348 2
321 322 2
321 349 5
322 323 4
322 350 5
323 324 1
323 351 1
324 325 5
324 352 5
325 326 5
325 353 3
326 327 5
326 354 2
327 328 5
327 355 4
328 329 4
328 356 3
329 330 5
329 357 2
330 331 2
330 358 2
331 332 5
331 359 2
332 333 5
332 360 2
333 334 3
333 361 2
334 335 3
334 362 2
335 336 5
335 363 3
336 364 1
337 338 4
337 365 1
338 339 2
338 366 1
339 340 2
339 367 1
340 341 3
340 368 2
341 342 1
341 369 2
342 343 1
342 370 5
343 344 5
343 371 4
344 345 4
344 372 4
345 346 2
345 373 1
346 347 2
346 374 1
347 348 3
347 375 1
348 349 3
348 376 3
349 350 1
349 377 5
350 351 4
350 378 4
351 352 5
351 379 5
352 353 3
352 380 5
353 354 5
353 381 3
354 355 2
354 382 1
355 356 5
355 383 2
356 357 1
356 384 3
357 358 2
357 385 2
358 359 2
358 386 3
359 360 2
359 387 3
360 361 3
360 388 4
361 362 5
361 389 1
362 363 2
362 390 4
363 364 1
363 391 4
364 392 3
365 366 3
365 393 4
366 367 5
366 394 3
367 368 5
367 395 1
368 369 4
368 396 1
369 370 1
369 397 2
370 371 5
370 398 1
371 372 5
371 399 2
372 373 3
372 400 4
373 374 3
373 401 2
374 375 1
374 402 5
375 376 3
375 403 1
376 377 2
376 404 4
377 378 3
377 405 5
378 379 2
378 406 1
379 380 3
379 407 4
380 381 5
380 408 3
381 382 1
381 409 4
382 383 3
382 410 3
383 384 1
383 411 3
384 385 3
384 412 3
385 386 5
385 413 1
386 387 2
386 414 4
387 388 4
387 415 2
388 389 1
388 416 4
389 390 1
389 417 3
390 391 3
390 418 3
391 392 4
391 419 1
392 420 3
393 394 5
393 421 4
394 395 2
394 422 5
395 396 1
395 423 1
396 397 5
396 424 1
397 398 4
397 425 5
398 399 2
398 426 2
399 400 5
399 427 2
400 401 3
400 428 1
401 402 5
401 429 5
402 403 5
402 430 4
403 404 4
403 431 5
404 405 5
404 432 4
405 406 2
405 433 4
406 407 1
406 434 2
407 408 2
407 435 5
408 409 2
408 436 2
409 410 1
409 437 4
410 411 1
410 438 5
411 412 4
411 439 3
412 413 4
412 440 2
413 414 2
413 441 4
414 415 5
414 442 5
415 416 4
415 443 5
416 417 5
416 444 4
417 418 3
417 445 5
418 419 3
418 446 5
419 420 3
419 447 3
420 448 3
421 422 3
421 449 3
422 423 2
422 450 4
423 424 4
423 451 3
424 425 2
424 452 3
425 426 2
425 453 3
426 427 5
426 454 2
427 428 4
427 455 5
428 429 2
428 456 3
429 430 1
429 457 4
430 431 3
430 458 4
431 432 5
431 459 4
432 433 2
432 460 1
433 434 5
433 461 4
434 435 2
434 462 3
435 436 3
435 463 4
436 437 2
436 464 2
437 438 5
437 465 4
438 439 2
438 466 3
439 440 2
439 467 5
440 441 1
440 468 4
441 442 4
441 469 5
442 443 2
442 470 5
443 444 1
443 471 3
444 445 3
444 472 3
445 446 4
445 473 5
446 447 3
446 474 5
447 448 1
447 475 2
448 476 3
449 450 3
449 477 5
450 451 3
450 478 3
451 452 1
451 479 2
452 453 4
452 480 1
453 454 2
453 481 4
454 455 4
454 482 1
455 456 1
455 483 1
456 457 5
456 484 5
457 458 5
457 485 4
458 459 4
458 486 2
459 460 2
459 487 5
460 461 1
460 488 4
461 462 3
461 489 5
462 463 1
462 490 5
463 464 3
463 491 2
464 465 3
464 492 2
465 466 3
465 493 4
466 467 4
466 494 4
467 468 5
467 495 3
468 469 4
468 496 2
469 470 1
469 497 3
470 471 5
470 498 4
471 472 5
471 499 3
472 473 4
472 500 2
473 474 2
473 501 4
474 475 5
474 502 1
475 476 4
475 503 2
476 504 2
477 478 5
477 505 5
478 479 4
478 506 1
479 480 5
479 507 3
480 481 5
480 508 5
481 482 3
481 509 4
482 483 4
482 510 3
483 484 2
483 511 4
484 485 4
484 512 5
485 486 3
485 513 2
486 487 5
486 514 3
487 488 1
487 515 1
488 489 5
488 516 4
489 490 5
489 517 2
490 491 4
490 518 3
491 492 2
491 519 2
492 493 2
492 520 5
493 494 3
493 521 2
494 495 2
494 522 5
495 496 2
495 523 5
496 497 3
496 524 2
497 498 5
497 525 2
498 499 4
498 526 5
499 500 1
499 527 1
500 501 3
500 528 2
501 502 3
501 529 3
502 503 5
502 530 1
503 504 4
503 531 5
504 532 5
505 506 1
505 533 1
506 507 5
506 534 5
507 508 1
507 535 5
508 509 2
508 536 4
509 510 5
509 537 2
510 511 3
510 538 2
511 512 5
511 539 1
512 513 3
512 540 3
513 514 5
513 541 2
514 515 1
514 542 4
515 516 2
515 543 3
516 517 5
516 544 1
517 518 3
517 545 5
518 519 1
518 546 2
519 520 5
519 547 2
520 521 4
520 548 1
521 522 4
521 549 4
522 523 2
522 550 2
523 524 4
523 551 2
524 525 5
524 552 5
525 526 3
525 553 2
526 527 3
526 554 5
527 528 4
527 555 4
528 529 4
528 556 4
529 530 4
529 557 5
530 531 1
530 558 4
531 532 4
531 559 5
532 560 4
533 534 5
533 561 1
534 535 5
534 562 5
535 536 3
535 563 1
536 537 4
536 564 1
537 538 4
537 565 2
538 539 2
538 566 3
539 540 1
539 567 4
540 541 4
540 568 5
541 542 5
541 569 3
542 543 2
542 570 1
543 544 2
543 571 5
544 545 2
544 572 2
545 546 3
545 573 4
546 547 2
546 574 2
547 548 3
547 575 5
548 549 3
548 576 3
549 550 1
549 577 5
550 551 2
550 578 4
551 552 4
551 579 3
552 553 5
552 580 2
553 554 4
553 581 3
554 555 4
554 582 4
555 556 2
555 583 5
556 557 4
556 584 3
557 558 3
557 585 2
558 559 2
558 586 1
559 560 2
559 587 1
560 588 2
561 562 3
561 589 3
562 563 3
562 590 4
563 564 1
563 591 3
564 565 3
564 592 5
565 566 4
565 593 2
566 567 5
566 594 1
567 568 2
567 595 3
568 569 3
568 596 1
569 570 3
569 597 4
570 571 4
570 598 3
571 572 2
571 599 1
572 573 2
572 600 2
573 574 4
573 601 3
574 575 3
574 602 1
575 576 4
575 603 1
576 577 5
576 604 4
577 578 1
577 605 2
578 579 2
578 606 5
579 580 3
579 607 2
580 581 5
580 608 5
581 582 1
581 609 4
582 583 4
582 610 1
583 584 4
583 611 1
584 585 3
584 612 1
585 586 5
585 613 1
586 587 5
586 614 5
587 588 5
587 615 5
588 616 4
589 590 1
589 617 5
590 591 1
590 618 4
591 592 4
591 619 1
592 593 5
592 620 5
593 594 1
593 621 3
594 595 5
594 622 4
595 596 2
595 623 1
596 597 2
596 624 4
597 598 4
597 625 5
598 599 4
598 626 2
599 600 5
599 627 1
600 601 1
600 628 1
601 602 3
601 629 4
602 603 3
602 630 2
603 604 1
603 631 5
604 605 5
604 632 5
605 606 4
605 633 3
606 607 1
606 634 2
607 608 5
607 635 5
608 609 1
608 636 4
609 610 5
609 637 1
610 611 2
610 638 1
611 612 2
611 639 3
612 613 5
612 640 4
613 614 5
613 641 5
614 615 3
614 642 1
615 616 2
615 643 5
616 644 4
617 618 2
617 645 3
618 619 3
618 646 1
619 620 5
619 647 5
620 621 3
620 648 5
621 622 5
621 649 5
622 623 5
622 650 1
623 624 1
623 651 4
624 625 4
624 652 3
625 626 3
625 653 4
626 627 3
626 654 4
627 628 3
627 655 3
628 629 1
628 656 5
629 630 2
629 657 4
630 631 1
630 658 2
631 632 4
631 659 1
632 633 3
632 660 4
633 634 3
633 661 2
634 635 2
634 662 2
635 636 2
635 663 4
636 637 4
636 664 1
637 638 2
637 665 1
638 639 5
638 666 3
639 640 2
639 667 1
640 641 1
640 668 1
641 642 2
641 669 4
642 643 2
642 670 3
643 644 2
643 671 4
644 672 4
645 646 3
645 673 2
646 647 4
646 674 2
647 648 3
647 675 5
648 649 1
648 676 4
649 650 5
649 677 4
650 651 1
650 678 4
651 652 2
651 679 4
652 653 5
652 680 5
653 654 5
653 681 4
654 655 3
654 682 2
655 656 5
655 683 4
656 657 2
656 684 1
657 658 4
657 685 3
658 659 1
658 686 3
659 660 5
659 687 2
660 661 3
660 688 3
661 662 4
661 689 3
662 663 1
662 690 3
663 664 1
663 691 4
664 665 1
664 692 2
665 666 2
665 693 1
666 667 4
666 694 3
667 668 3
667 695 5
668 669 3
668 696 1
669 670 3
669 697 1
670 671 1
670 698 4
671 672 3
671 699 3
672 700 1
673 674 5
673 701 5
674 675 3
674 702 1
675 676 1
675 703 5
676 677 2
676 704 3
677 678 1
677 705 5
678 679 1
678 706 1
679 680 1
679 707 3
680 681 1
680 708 4
681 682 3
681 709 3
682 683 4
682 710 3
683 684 2
683 711 5
684 685 4
684 712 4
685 686 2
685 713 4
686 687 3
686 714 5
687 688 3
687 715 4
688 689 1
688 716 5
689 690 3
689 717 1
690 691 4
690 718 3
691 692 2
691 719 3
692 693 1
692 720 3
693 694 1
693 721 5
694 695 5
694 722 2
695 696 2
695 723 3
696 697 4
696 724 5
697 698 1
697 725 2
698 699 2
698 726 3
699 700 2
699 727 5
700 728 4
701 702 3
701 729 4
702 703 1
702 730 1
703 704 5
703 731 5
704 705 1
704 732 4
705 706 3
705 733 3
706 707 3
706 734 4
707 708 1
707 735 3
708 709 3
708 736 5
709 710 4
709 737 5
710 711 5
710 738 1
711 712 3
711 739 3
712 713 5
712 740 3
713 714 3
713 741 5
714 715 5
714 742 5
715 716 4
715 743 4
716 717 5
716 744 5
717 718 3
717 745 5
718 719 2
718 746 1
719 720 1
719 747 5
720 721 2
720 748 4
721 722 4
721 749 1
722 723 5
722 750 1
723 724 2
723 751 4
724 725 4
724 752 3
725 726 4
725 753 1
726 727 1
726 754 4
727 728 1
727 755 1
728 756 2
729 730 5
729 757 1
730 731 3
730 758 3
731 732 5
731 759 1
732 733 5
732 760 4
733 734 4
733 761 5
734 735 3
734 762 1
735 736 1
735 763 5
736 737 4
736 764 3
737 738 2
737 765 2
738 739 5
738 766 3
739 740 5
739 767 5
740 741 5
740 768 4
741 742 2
741 769 1
742 743 4
742 770 2
743 744 2
743 771 2
744 745 1
744 772 1
745 746 1
745 773 5
746 747 2
746 774 5
747 748 1
747 775 3
748 749 2
748 776 5
749 750 2
749 777 4
750 751 4
750 778 4
751 752 1
751 779 3
752 753 5
752 780 1
753 754 1
753 781 3
754 755 4
754 782 2
755 756 3
755 783 4
756 784 5
757 758 1
758 759 3
759 760 3
760 761 5
761 762 3
762 763 1
763 764 1
764 765 3
765 766 2
766 767 5
767 768 1
768 769 4
769 770 1
770 771 4
771 772 4
772 773 5
773 774 3
774 775 4
775 776 4
776 777 3
777 778 2
778 779 1
779 780 5
780 781 3
781 782 4
782 783 1
783 784 4
